Version identifier: 22.1.0.0 | 2022-03-09 | 1a383f8ce
CPXPARAM_Threads                                 1
CPXPARAM_MIP_Strategy_VariableSelect             3
CPXPARAM_TimeLimit                               599.99995585600004
1 of 1 MIP starts provided solutions.
MIP start 'm1' defined initial solution with objective 254.0000.
Tried aggregator 1 time.
MIP Presolve eliminated 21 rows and 1545 columns.
MIP Presolve modified 5 coefficients.
Reduced MIP has 2463 rows, 2163 columns, and 25814 nonzeros.
Reduced MIP has 2163 binaries, 0 generals, 0 SOSs, and 0 indicators.
Presolve time = 0.02 sec. (17.11 ticks)
Probing time = 0.00 sec. (2.58 ticks)
Tried aggregator 1 time.
Detecting symmetries...
Reduced MIP has 2463 rows, 2163 columns, and 25814 nonzeros.
Reduced MIP has 2163 binaries, 0 generals, 0 SOSs, and 0 indicators.
Presolve time = 0.02 sec. (15.37 ticks)
Probing time = 0.00 sec. (2.58 ticks)
Clique table members: 1534.
MIP emphasis: balance optimality and feasibility.
MIP search method: dynamic search.
Parallel mode: none, using 1 thread.
Root relaxation solution time = 0.10 sec. (93.71 ticks)

        Nodes                                         Cuts/
   Node  Left     Objective  IInf  Best Integer    Best Bound    ItCnt     Gap

*     0+    0                          254.0000     2163.0000           751.57%
      0     0      308.0000   629      254.0000      308.0000     1536   21.26%
*     0+    0                          308.0000      308.0000             0.00%
      0     0        cutoff            308.0000      308.0000     1536    0.00%
Elapsed time = 0.70 sec. (555.93 ticks, tree = 0.01 MB, solutions = 2)

Root node processing (before b&c):
  Real time             =    0.71 sec. (556.08 ticks)
Sequential b&c:
  Real time             =    0.00 sec. (0.00 ticks)
                          ------------
Total (root+branch&cut) =    0.71 sec. (556.08 ticks)
Primal:	308
Dual:	308
Status:	Optimal
Time:	0.73
Sequence:
	9
	0
	9
	4
	0
	4
	9
	0
	9
	4
	0
	9
	4
	0
	4
	4
	0
	4
	4
	0
	4
	6
	0
	5
	4
	0
	9
	1
	0
	6
	9
	0
	9
	9
	0
	9
	4
	0
	6
	4
	0
	9
	6
	0
	4
	1
	0
	6
	4
	0
	4
	4
	0
	4
	1
	0
	6
	4
	0
	9
	1
	0
	9
	9
	0
	1
	4
	0
	9
	6
	0
	4
	1
	0
	4
	6
	0
	4
	4
	0
	4
	4
	0
	4
	4
	0
	6
	4
	0
	1
	9
	0
	9
	4
	0
	1
	4
	0
	4
	5
	0
	4
	6
	0
	9
	9
	0
	4
	4
	0
	6
	9
	0
	4
	6
	0
	4
	4
	0
	4
	6
	0
	4
	4
	0
	4
	4
	0
	6
	4
	0
	4
	9
	0
	6
	4
	0
	4
	3
	0
	4
	6
	0
	4
	3
	0
	9
	9
	0
	9
	4
	0
	4
	4
	0
	4
	6
	0
	4
	5
	0
	9
	4
	0
	9
	4
	0
	4
	4
	0
	4
	4
	0
	9
	4
	0
	4
	4
	0
	9
	4
	0
	4
	9
	0
	9
	6
	0
	9
	4
	0
	3
	4
	0
	6
	4
	0
	9
	9
	0
	9
	9
	0
	9
	9
	0
	3
	4
	0
	1
	9
	0
	4
	9
	0
	9
	9
	0
	9
	9
	0
	9
	9
	0
	9
	9
	0
	9
	9
	0
	9
	9
	0
	9
	9
	0
	9
	9
	0
	9
	9
	0
	9
	9
	0
	9
	9
	0
	9
	9
	0
	9
	9
	0
	9
	9
	0
	9
	9
	0
	9
	9
	0
	9
	9
	0
	9
	9
	0
	9
	9
	0
	9
	6
	0
	9
	9
	0
	9
	6
	0
	9
	5
	0
	9
	9
	0
	9
	9
	0
	9
	9
	0
	9
	9
	0
	9
	9
	0
	9
	9
	0
	9
	9
	0
	9
	6
	0
